1 of 1 MIP starts provided solutions.
MIP start 'm1' defined initial solution with objective 101702.0000.
Tried aggregator 1 time.
MIP Presolve eliminated 0 rows and 1 columns.
MIP Presolve modified 25000 coefficients.
Reduced MIP has 20100 rows, 10200 columns, and 1049641 nonzeros.
Reduced MIP has 10000 binaries, 0 generals, 0 SOSs, and 0 indicators.
Presolve time = 0.78 sec. (450.61 ticks)
Probing time = 0.05 sec. (22.39 ticks)
Tried aggregator 1 time.
Reduced MIP has 20100 rows, 10200 columns, and 1049641 nonzeros.
Reduced MIP has 10000 binaries, 0 generals, 0 SOSs, and 0 indicators.
Presolve time = 0.49 sec. (264.15 ticks)
Probing time = 0.05 sec. (22.37 ticks)
Clique table members: 100.
MIP emphasis: balance optimality and feasibility.
MIP search method: dynamic search.
Parallel mode: none, using 1 thread.
Root relaxation solution time = 0.26 sec. (142.60 ticks)

        Nodes                                         Cuts/
   Node  Left     Objective  IInf  Best Integer    Best Bound    ItCnt     Gap

*     0+    0                       101702.0000  7671567.0000      204     --- 
      0     0   101885.0238    86   101702.0000   101885.0238      204    0.18%
      0     0   101765.1995    50   101702.0000      Cuts: 66      275    0.06%
      0     0   101733.6431    32   101702.0000      Cuts: 82      317    0.03%

Repeating presolve.
Tried aggregator 1 time.
MIP Presolve eliminated 9051 rows and 9285 columns.
MIP Presolve modified 27301 coefficients.
Reduced MIP has 11049 rows, 915 columns, and 93759 nonzeros.
Reduced MIP has 715 binaries, 0 generals, 0 SOSs, and 0 indicators.
Presolve time = 0.20 sec. (121.91 ticks)
Probing time = 0.01 sec. (4.62 ticks)
Cover probing fixed 0 vars, tightened 1817 bounds.
Tried aggregator 1 time.
MIP Presolve eliminated 2 rows and 0 columns.
MIP Presolve modified 51993 coefficients.
Reduced MIP has 11047 rows, 915 columns, and 93755 nonzeros.
Reduced MIP has 715 binaries, 0 generals, 0 SOSs, and 0 indicators.
Presolve time = 0.09 sec. (52.96 ticks)
Represolve time = 0.34 sec. (203.46 ticks)
Probing time = 0.01 sec. (4.56 ticks)
Cover probing fixed 0 vars, tightened 95 bounds.
Clique table members: 100.
Tightened 95 constraints.
MIP emphasis: balance optimality and feasibility.
MIP search method: dynamic search.
Parallel mode: none, using 1 thread.
Root relaxation solution time = 0.08 sec. (52.49 ticks)

        Nodes                                         Cuts/
   Node  Left     Objective  IInf  Best Integer    Best Bound    ItCnt     Gap

*     0+    0                       101702.0000   101733.6431      663    0.03%
      0     0   101732.3651    33   101702.0000   101732.3651      663    0.03%
      0     2   101732.3651    33   101702.0000   101731.7148      663    0.03%
Elapsed time = 4.95 sec. (2632.69 ticks, tree = 0.00 MB, solutions = 1)
     40    18   101722.8005    26   101702.0000   101727.7148      765    0.03%
     80    37   101711.1467    22   101702.0000   101724.3799      877    0.02%
    137    68   101711.9749    26   101702.0000   101716.9966     1022    0.01%
    194    83    infeasible         101702.0000   101711.6308     1145    0.01%

Implied bound cuts applied:  49
Flow cuts applied:  9
Mixed integer rounding cuts applied:  14
Gomory fractional cuts applied:  35

Root node processing (before b&c):
  Real time             =    4.95 sec. (2632.57 ticks)
Sequential b&c:
  Real time             =    1.42 sec. (972.54 ticks)
                          ------------
Total (root+branch&cut) =    6.37 sec. (3605.11 ticks)
